p cnf 10 50
-2 9 -1 0
-9 -10 4 0
5 1 10 0
1 -10 5 0
3 -2 -7 0
-1 -9 -10 0
1 -4 2 0
7 10 -3 0
-9 3 -10 0
9 -10 5 0
5 -2 8 0
-4 8 -10 0
6 4 -7 0
-1 4 5 0
-4 5 -7 0
-6 -2 8 0
-6 -8 10 0
1 -6 5 0
10 4 2 0
-4 3 1 0
-2 1 4 0
7 -1 -5 0
8 -2 -3 0
1 5 -8 0
-10 -3 1 0
-10 9 -1 0
3 2 -7 0
-7 4 5 0
-10 -5 -2 0
-3 -1 6 0
-1 -7 -8 0
-8 10 1 0
-7 -6 8 0
6 9 1 0
5 -1 -6 0
-5 7 3 0
5 -7 -10 0
-1 7 8 0
8 -9 2 0
5 4 1 0
-4 -2 6 0
-1 -9 -5 0
-4 -8 6 0
-1 -10 8 0
-3 -2 6 0
-10 3 -9 0
-4 -2 -6 0
-3 10 -5 0
8 -4 9 0
-4 6 8 0